TCS_Benchmarks/redos_fix/regexlib1_output_distinct_3800_3799_20_0.txt
[\d]{0,3}
([\d]{0,3})((\-| {0,1})?)([\d]{5,11})
[\d]{5,11}